\ENCODING=ISO-8859-1
\Problem name: SacADos

Maximize
 obj: 3 x(1) + 3 x(2) + 3 x(3) + 3 x(4) + 3 x(5)
Subject To
 c1: 3 x(1) + 3 x(2) + 3 x(3) + 3 x(4) + 3 x(5) <= 6
Bounds
 0 <= x(1) <= 1
 0 <= x(2) <= 1
 0 <= x(3) <= 1
 0 <= x(4) <= 1
 0 <= x(5) <= 1
Binaries
 x(1)  x(2)  x(3)  x(4)  x(5) 
End
